(set-logic UF)
(declare-sort Loc 0)
(declare-sort SetLoc 0)
(declare-sort FldBool 0)
(declare-sort FldLoc 0)
(declare-fun null$0 () Loc)
(declare-fun read$0 (FldLoc Loc) Loc)
(declare-fun ep$0 (FldLoc SetLoc Loc) Loc)
(declare-fun emptyset$0 () SetLoc)
(declare-fun setenum$0 (Loc) SetLoc)
(declare-fun union$0 (SetLoc SetLoc) SetLoc)
(declare-fun intersection$0 (SetLoc SetLoc) SetLoc)
(declare-fun setminus$0 (SetLoc SetLoc) SetLoc)
(declare-fun Btwn$0 (FldLoc Loc Loc Loc) Bool)
(declare-fun Frame$0 (SetLoc SetLoc FldLoc FldLoc) Bool)
(declare-fun in$0 (Loc SetLoc) Bool)
(declare-fun Alloc$0 () SetLoc)
(declare-fun Alloc_1$0 () SetLoc)
(declare-fun Axiom_2$0 () Bool)
(declare-fun Axiom_3$0 () Bool)
(declare-fun Axiom_4$0 () Bool)
(declare-fun FP$0 () SetLoc)
(declare-fun FP_1$0 () SetLoc)
(declare-fun FP_2$0 () SetLoc)
(declare-fun FP_Caller$0 () SetLoc)
(declare-fun FP_Caller_1$0 () SetLoc)
(declare-fun FP_Caller_final_1$0 () SetLoc)
(declare-fun a$0 () Loc)
(declare-fun a_1$0 () Loc)
(declare-fun b$0 () Loc)
(declare-fun b_1$0 () Loc)
(declare-fun dlseg_domain$0 (FldLoc FldLoc Loc Loc Loc Loc) SetLoc)
(declare-fun dlseg_struct$0 (SetLoc FldLoc FldLoc Loc Loc Loc Loc) Bool)
(declare-fun next$0 () FldLoc)
(declare-fun prev$0 () FldLoc)
(declare-fun prv_2$0 () Loc)
(declare-fun prv_3$0 () Loc)
(declare-fun sk_?X_2$0 () SetLoc)
(declare-fun sk_?X_3$0 () SetLoc)
(declare-fun sk_?X_4$0 () SetLoc)
(declare-fun sk_?e$0 () Loc)
(assert (not (forall ((BOUND_VARIABLE_1064 Loc)) (or (Btwn$0 next$0 prv_2$0 BOUND_VARIABLE_1064 prv_2$0) (and (or (= prv_2$0 BOUND_VARIABLE_1064) (not (Btwn$0 next$0 prv_2$0 BOUND_VARIABLE_1064 prv_2$0))) (not (in$0 BOUND_VARIABLE_1064 (dlseg_domain$0 next$0 prev$0 prv_2$0 prv_3$0 prv_2$0 b_1$0))))))))
(assert (and (forall ((BOUND_VARIABLE_1064 Loc)) (or (Btwn$0 next$0 prv_2$0 BOUND_VARIABLE_1064 prv_2$0) (and (or (= prv_2$0 BOUND_VARIABLE_1064) (not (Btwn$0 next$0 prv_2$0 BOUND_VARIABLE_1064 prv_2$0))) (not (in$0 BOUND_VARIABLE_1064 (dlseg_domain$0 next$0 prev$0 prv_2$0 prv_3$0 prv_2$0 b_1$0)))))) (forall ((BOUND_VARIABLE_1076 Loc)) (or (in$0 BOUND_VARIABLE_1076 (dlseg_domain$0 next$0 prev$0 prv_2$0 prv_3$0 prv_2$0 b_1$0)) (and (or (= prv_2$0 BOUND_VARIABLE_1076) (not (Btwn$0 next$0 prv_2$0 BOUND_VARIABLE_1076 prv_2$0))) (not (in$0 BOUND_VARIABLE_1076 (dlseg_domain$0 next$0 prev$0 prv_2$0 prv_3$0 prv_2$0 b_1$0)))))) (not (in$0 prv_2$0 (dlseg_domain$0 next$0 prev$0 prv_2$0 prv_3$0 prv_2$0 b_1$0)))))
(check-sat)
(exit)
